p cnf 614 1680
-1 5 51 0
1 5 -51 0
-1 -5 -51 0
1 -5 51 0
-7 -8 52 0
7 -8 -52 0
-7 8 -52 0
7 8 52 0
10 12 53 0
-10 12 -53 0
10 -12 -53 0
-10 -12 53 0
16 -18 54 0
-16 -18 -54 0
16 18 -54 0
-16 18 54 0
19 -21 55 0
-19 -21 -55 0
19 21 -55 0
-19 21 55 0
22 24 56 0
-22 24 -56 0
22 -24 -56 0
-22 -24 56 0
-25 27 57 0
25 27 -57 0
-25 -27 -57 0
25 -27 57 0
-28 32 58 0
28 32 -58 0
-28 -32 -58 0
28 -32 58 0
33 35 59 0
-33 35 -59 0
33 -35 -59 0
-33 -35 59 0
37 -39 60 0
-37 -39 -60 0
37 39 -60 0
-37 39 60 0
42 -47 61 0
-42 -47 -61 0
42 47 -61 0
-42 47 61 0
48 50 62 0
-48 50 -62 0
48 -50 -62 0
-48 -50 62 0
51 -52 63 0
-51 -52 -63 0
51 52 -63 0
-51 52 63 0
53 -54 64 0
-53 -54 -64 0
53 54 -64 0
-53 54 64 0
55 -56 65 0
-55 -56 -65 0
55 56 -65 0
-55 56 65 0
57 -58 66 0
-57 -58 -66 0
57 58 -66 0
-57 58 66 0
59 -60 67 0
-59 -60 -67 0
59 60 -67 0
-59 60 67 0
61 -62 68 0
-61 -62 -68 0
61 62 -68 0
-61 62 68 0
63 -64 69 0
-63 -64 -69 0
63 64 -69 0
-63 64 69 0
65 -66 70 0
-65 -66 -70 0
65 66 -70 0
-65 66 70 0
67 -68 71 0
-67 -68 -71 0
67 68 -71 0
-67 68 71 0
-69 -70 71 0
69 -70 -71 0
-69 70 -71 0
69 70 71 0
3 6 72 0
-3 6 -72 0
3 -6 -72 0
-3 -6 72 0
-7 8 73 0
7 8 -73 0
-7 -8 -73 0
7 -8 73 0
-10 -11 74 0
10 -11 -74 0
-10 11 -74 0
10 11 74 0
14 16 75 0
-14 16 -75 0
14 -16 -75 0
-14 -16 75 0
17 -18 76 0
-17 -18 -76 0
17 18 -76 0
-17 18 76 0
20 -22 77 0
-20 -22 -77 0
20 22 -77 0
-20 22 77 0
-23 -25 78 0
23 -25 -78 0
-23 25 -78 0
23 25 78 0
27 28 79 0
-27 28 -79 0
27 -28 -79 0
-27 -28 79 0
29 31 80 0
-29 31 -80 0
29 -31 -80 0
-29 -31 80 0
34 40 81 0
-34 40 -81 0
34 -40 -81 0
-34 -40 81 0
41 -44 82 0
-41 -44 -82 0
41 44 -82 0
-41 44 82 0
46 -47 83 0
-46 -47 -83 0
46 47 -83 0
-46 47 83 0
71 -72 84 0
-71 -72 -84 0
71 72 -84 0
-71 72 84 0
73 -74 85 0
-73 -74 -85 0
73 74 -85 0
-73 74 85 0
75 -76 86 0
-75 -76 -86 0
75 76 -86 0
-75 76 86 0
77 -78 87 0
-77 -78 -87 0
77 78 -87 0
-77 78 87 0
79 -80 88 0
-79 -80 -88 0
79 80 -88 0
-79 80 88 0
81 -82 89 0
-81 -82 -89 0
81 82 -89 0
-81 82 89 0
83 -84 90 0
-83 -84 -90 0
83 84 -90 0
-83 84 90 0
85 -86 91 0
-85 -86 -91 0
85 86 -91 0
-85 86 91 0
87 -88 92 0
-87 -88 -92 0
87 88 -92 0
-87 88 92 0
89 -90 93 0
-89 -90 -93 0
89 90 -93 0
-89 90 93 0
91 -92 94 0
-91 -92 -94 0
91 92 -94 0
-91 92 94 0
93 94 0
-93 -94 0
-1 2 95 0
1 2 -95 0
-1 -2 -95 0
1 -2 95 0
5 6 96 0
-5 6 -96 0
5 -6 -96 0
-5 -6 96 0
-9 12 97 0
9 12 -97 0
-9 -12 -97 0
9 -12 97 0
15 16 98 0
-15 16 -98 0
15 -16 -98 0
-15 -16 98 0
18 20 99 0
-18 20 -99 0
18 -20 -99 0
-18 -20 99 0
-21 22 100 0
21 22 -100 0
-21 -22 -100 0
21 -22 100 0
-24 26 101 0
24 26 -101 0
-24 -26 -101 0
24 -26 101 0
-29 32 102 0
29 32 -102 0
-29 -32 -102 0
29 -32 102 0
-34 35 103 0
34 35 -103 0
-34 -35 -103 0
34 -35 103 0
37 38 104 0
-37 38 -104 0
37 -38 -104 0
-37 -38 104 0
-39 -40 105 0
39 -40 -105 0
-39 40 -105 0
39 40 105 0
-43 -46 106 0
43 -46 -106 0
-43 46 -106 0
43 46 106 0
48 49 107 0
-48 49 -107 0
48 -49 -107 0
-48 -49 107 0
95 -96 108 0
-95 -96 -108 0
95 96 -108 0
-95 96 108 0
97 -98 109 0
-97 -98 -109 0
97 98 -109 0
-97 98 109 0
99 -100 110 0
-99 -100 -110 0
99 100 -110 0
-99 100 110 0
101 -102 111 0
-101 -102 -111 0
101 102 -111 0
-101 102 111 0
103 -104 112 0
-103 -104 -112 0
103 104 -112 0
-103 104 112 0
105 -106 113 0
-105 -106 -113 0
105 106 -113 0
-105 106 113 0
107 -108 114 0
-107 -108 -114 0
107 108 -114 0
-107 108 114 0
109 -110 115 0
-109 -110 -115 0
109 110 -115 0
-109 110 115 0
111 -112 116 0
-111 -112 -116 0
111 112 -116 0
-111 112 116 0
113 -114 117 0
-113 -114 -117 0
113 114 -117 0
-113 114 117 0
115 -116 118 0
-115 -116 -118 0
115 116 -118 0
-115 116 118 0
117 118 0
-117 -118 0
-1 -5 119 0
1 -5 -119 0
-1 5 -119 0
1 5 119 0
6 10 120 0
-6 10 -120 0
6 -10 -120 0
-6 -10 120 0
11 12 121 0
-11 12 -121 0
11 -12 -121 0
-11 -12 121 0
14 -15 122 0
-14 -15 -122 0
14 15 -122 0
-14 15 122 0
-16 21 123 0
16 21 -123 0
-16 -21 -123 0
16 -21 123 0
-23 24 124 0
23 24 -124 0
-23 -24 -124 0
23 -24 124 0
-26 -28 125 0
26 -28 -125 0
-26 28 -125 0
26 28 125 0
29 32 126 0
-29 32 -126 0
29 -32 -126 0
-29 -32 126 0
38 -39 127 0
-38 -39 -127 0
38 39 -127 0
-38 39 127 0
45 46 128 0
-45 46 -128 0
45 -46 -128 0
-45 -46 128 0
-48 50 129 0
48 50 -129 0
-48 -50 -129 0
48 -50 129 0
119 -120 130 0
-119 -120 -130 0
119 120 -130 0
-119 120 130 0
121 -122 131 0
-121 -122 -131 0
121 122 -131 0
-121 122 131 0
123 -124 132 0
-123 -124 -132 0
123 124 -132 0
-123 124 132 0
125 -126 133 0
-125 -126 -133 0
125 126 -133 0
-125 126 133 0
127 -128 134 0
-127 -128 -134 0
127 128 -134 0
-127 128 134 0
129 -130 135 0
-129 -130 -135 0
129 130 -135 0
-129 130 135 0
131 -132 136 0
-131 -132 -136 0
131 132 -136 0
-131 132 136 0
133 -134 137 0
-133 -134 -137 0
133 134 -137 0
-133 134 137 0
-135 -136 137 0
135 -136 -137 0
-135 136 -137 0
135 136 137 0
1 2 138 0
-1 2 -138 0
1 -2 -138 0
-1 -2 138 0
4 8 139 0
-4 8 -139 0
4 -8 -139 0
-4 -8 139 0
11 -13 140 0
-11 -13 -140 0
11 13 -140 0
-11 13 140 0
-14 20 141 0
14 20 -141 0
-14 -20 -141 0
14 -20 141 0
-21 -22 142 0
21 -22 -142 0
-21 22 -142 0
21 22 142 0
26 28 143 0
-26 28 -143 0
26 -28 -143 0
-26 -28 143 0
-29 32 144 0
29 32 -144 0
-29 -32 -144 0
29 -32 144 0
-34 -36 145 0
34 -36 -145 0
-34 36 -145 0
34 36 145 0
-37 38 146 0
37 38 -146 0
-37 -38 -146 0
37 -38 146 0
-40 42 147 0
40 42 -147 0
-40 -42 -147 0
40 -42 147 0
-44 45 148 0
44 45 -148 0
-44 -45 -148 0
44 -45 148 0
-49 -50 149 0
49 -50 -149 0
-49 50 -149 0
49 50 149 0
138 -139 150 0
-138 -139 -150 0
138 139 -150 0
-138 139 150 0
140 -141 151 0
-140 -141 -151 0
140 141 -151 0
-140 141 151 0
142 -143 152 0
-142 -143 -152 0
142 143 -152 0
-142 143 152 0
144 -145 153 0
-144 -145 -153 0
144 145 -153 0
-144 145 153 0
146 -147 154 0
-146 -147 -154 0
146 147 -154 0
-146 147 154 0
148 -149 155 0
-148 -149 -155 0
148 149 -155 0
-148 149 155 0
150 -151 156 0
-150 -151 -156 0
150 151 -156 0
-150 151 156 0
152 -153 157 0
-152 -153 -157 0
152 153 -157 0
-152 153 157 0
154 -155 158 0
-154 -155 -158 0
154 155 -158 0
-154 155 158 0
-156 -157 158 0
156 -157 -158 0
-156 157 -158 0
156 157 158 0
3 -5 159 0
-3 -5 -159 0
3 5 -159 0
-3 5 159 0
-11 -14 160 0
11 -14 -160 0
-11 14 -160 0
11 14 160 0
-15 -17 161 0
15 -17 -161 0
-15 17 -161 0
15 17 161 0
-21 -24 162 0
21 -24 -162 0
-21 24 -162 0
21 24 162 0
-26 27 163 0
26 27 -163 0
-26 -27 -163 0
26 -27 163 0
-28 -30 164 0
28 -30 -164 0
-28 30 -164 0
28 30 164 0
-33 34 165 0
33 34 -165 0
-33 -34 -165 0
33 -34 165 0
-35 38 166 0
35 38 -166 0
-35 -38 -166 0
35 -38 166 0
-41 43 167 0
41 43 -167 0
-41 -43 -167 0
41 -43 167 0
44 -45 168 0
-44 -45 -168 0
44 45 -168 0
-44 45 168 0
46 48 169 0
-46 48 -169 0
46 -48 -169 0
-46 -48 169 0
158 -159 170 0
-158 -159 -170 0
158 159 -170 0
-158 159 170 0
160 -161 171 0
-160 -161 -171 0
160 161 -171 0
-160 161 171 0
162 -163 172 0
-162 -163 -172 0
162 163 -172 0
-162 163 172 0
164 -165 173 0
-164 -165 -173 0
164 165 -173 0
-164 165 173 0
166 -167 174 0
-166 -167 -174 0
166 167 -174 0
-166 167 174 0
168 -169 175 0
-168 -169 -175 0
168 169 -175 0
-168 169 175 0
170 -171 176 0
-170 -171 -176 0
170 171 -176 0
-170 171 176 0
172 -173 177 0
-172 -173 -177 0
172 173 -177 0
-172 173 177 0
174 -175 178 0
-174 -175 -178 0
174 175 -178 0
-174 175 178 0
-176 -177 178 0
176 -177 -178 0
-176 177 -178 0
176 177 178 0
-2 4 179 0
2 4 -179 0
-2 -4 -179 0
2 -4 179 0
-5 8 180 0
5 8 -180 0
-5 -8 -180 0
5 -8 180 0
-10 12 181 0
10 12 -181 0
-10 -12 -181 0
10 -12 181 0
-15 16 182 0
15 16 -182 0
-15 -16 -182 0
15 -16 182 0
-17 18 183 0
17 18 -183 0
-17 -18 -183 0
17 -18 183 0
19 -20 184 0
-19 -20 -184 0
19 20 -184 0
-19 20 184 0
-21 -23 185 0
21 -23 -185 0
-21 23 -185 0
21 23 185 0
-25 27 186 0
25 27 -186 0
-25 -27 -186 0
25 -27 186 0
-31 32 187 0
31 32 -187 0
-31 -32 -187 0
31 -32 187 0
-33 34 188 0
33 34 -188 0
-33 -34 -188 0
33 -34 188 0
38 39 189 0
-38 39 -189 0
38 -39 -189 0
-38 -39 189 0
-42 -43 190 0
42 -43 -190 0
-42 43 -190 0
42 43 190 0
44 -45 191 0
-44 -45 -191 0
44 45 -191 0
-44 45 191 0
-47 -50 192 0
47 -50 -192 0
-47 50 -192 0
47 50 192 0
179 -180 193 0
-179 -180 -193 0
179 180 -193 0
-179 180 193 0
181 -182 194 0
-181 -182 -194 0
181 182 -194 0
-181 182 194 0
183 -184 195 0
-183 -184 -195 0
183 184 -195 0
-183 184 195 0
185 -186 196 0
-185 -186 -196 0
185 186 -196 0
-185 186 196 0
187 -188 197 0
-187 -188 -197 0
187 188 -197 0
-187 188 197 0
189 -190 198 0
-189 -190 -198 0
189 190 -198 0
-189 190 198 0
191 -192 199 0
-191 -192 -199 0
191 192 -199 0
-191 192 199 0
193 -194 200 0
-193 -194 -200 0
193 194 -200 0
-193 194 200 0
195 -196 201 0
-195 -196 -201 0
195 196 -201 0
-195 196 201 0
197 -198 202 0
-197 -198 -202 0
197 198 -202 0
-197 198 202 0
199 -200 203 0
-199 -200 -203 0
199 200 -203 0
-199 200 203 0
201 -202 204 0
-201 -202 -204 0
201 202 -204 0
-201 202 204 0
203 204 0
-203 -204 0
8 -10 205 0
-8 -10 -205 0
8 10 -205 0
-8 10 205 0
-12 -13 206 0
12 -13 -206 0
-12 13 -206 0
12 13 206 0
17 -19 207 0
-17 -19 -207 0
17 19 -207 0
-17 19 207 0
20 -21 208 0
-20 -21 -208 0
20 21 -208 0
-20 21 208 0
-22 -25 209 0
22 -25 -209 0
-22 25 -209 0
22 25 209 0
26 -27 210 0
-26 -27 -210 0
26 27 -210 0
-26 27 210 0
-31 32 211 0
31 32 -211 0
-31 -32 -211 0
31 -32 211 0
-35 38 212 0
35 38 -212 0
-35 -38 -212 0
35 -38 212 0
-39 -40 213 0
39 -40 -213 0
-39 40 -213 0
39 40 213 0
41 -42 214 0
-41 -42 -214 0
41 42 -214 0
-41 42 214 0
45 47 215 0
-45 47 -215 0
45 -47 -215 0
-45 -47 215 0
-49 50 216 0
49 50 -216 0
-49 -50 -216 0
49 -50 216 0
205 -206 217 0
-205 -206 -217 0
205 206 -217 0
-205 206 217 0
207 -208 218 0
-207 -208 -218 0
207 208 -218 0
-207 208 218 0
209 -210 219 0
-209 -210 -219 0
209 210 -219 0
-209 210 219 0
211 -212 220 0
-211 -212 -220 0
211 212 -220 0
-211 212 220 0
213 -214 221 0
-213 -214 -221 0
213 214 -221 0
-213 214 221 0
215 -216 222 0
-215 -216 -222 0
215 216 -222 0
-215 216 222 0
217 -218 223 0
-217 -218 -223 0
217 218 -223 0
-217 218 223 0
219 -220 224 0
-219 -220 -224 0
219 220 -224 0
-219 220 224 0
221 -222 225 0
-221 -222 -225 0
221 222 -225 0
-221 222 225 0
-223 -224 225 0
223 -224 -225 0
-223 224 -225 0
223 224 225 0
2 4 226 0
-2 4 -226 0
2 -4 -226 0
-2 -4 226 0
-6 -9 227 0
6 -9 -227 0
-6 9 -227 0
6 9 227 0
10 11 228 0
-10 11 -228 0
10 -11 -228 0
-10 -11 228 0
-12 14 229 0
12 14 -229 0
-12 -14 -229 0
12 -14 229 0
-17 18 230 0
17 18 -230 0
-17 -18 -230 0
17 -18 230 0
19 20 231 0
-19 20 -231 0
19 -20 -231 0
-19 -20 231 0
23 27 232 0
-23 27 -232 0
23 -27 -232 0
-23 -27 232 0
29 30 233 0
-29 30 -233 0
29 -30 -233 0
-29 -30 233 0
32 35 234 0
-32 35 -234 0
32 -35 -234 0
-32 -35 234 0
-39 42 235 0
39 42 -235 0
-39 -42 -235 0
39 -42 235 0
-45 -46 236 0
45 -46 -236 0
-45 46 -236 0
45 46 236 0
49 50 237 0
-49 50 -237 0
49 -50 -237 0
-49 -50 237 0
226 -227 238 0
-226 -227 -238 0
226 227 -238 0
-226 227 238 0
228 -229 239 0
-228 -229 -239 0
228 229 -239 0
-228 229 239 0
230 -231 240 0
-230 -231 -240 0
230 231 -240 0
-230 231 240 0
232 -233 241 0
-232 -233 -241 0
232 233 -241 0
-232 233 241 0
234 -235 242 0
-234 -235 -242 0
234 235 -242 0
-234 235 242 0
236 -237 243 0
-236 -237 -243 0
236 237 -243 0
-236 237 243 0
238 -239 244 0
-238 -239 -244 0
238 239 -244 0
-238 239 244 0
240 -241 245 0
-240 -241 -245 0
240 241 -245 0
-240 241 245 0
242 -243 246 0
-242 -243 -246 0
242 243 -246 0
-242 243 246 0
-244 -245 246 0
244 -245 -246 0
-244 245 -246 0
244 245 246 0
-3 -8 247 0
3 -8 -247 0
-3 8 -247 0
3 8 247 0
9 -10 248 0
-9 -10 -248 0
9 10 -248 0
-9 10 248 0
11 -12 249 0
-11 -12 -249 0
11 12 -249 0
-11 12 249 0
-14 16 250 0
14 16 -250 0
-14 -16 -250 0
14 -16 250 0
19 20 251 0
-19 20 -251 0
19 -20 -251 0
-19 -20 251 0
-21 -25 252 0
21 -25 -252 0
-21 25 -252 0
21 25 252 0
-26 27 253 0
26 27 -253 0
-26 -27 -253 0
26 -27 253 0
28 30 254 0
-28 30 -254 0
28 -30 -254 0
-28 -30 254 0
31 32 255 0
-31 32 -255 0
31 -32 -255 0
-31 -32 255 0
-33 -34 256 0
33 -34 -256 0
-33 34 -256 0
33 34 256 0
-35 36 257 0
35 36 -257 0
-35 -36 -257 0
35 -36 257 0
37 38 258 0
-37 38 -258 0
37 -38 -258 0
-37 -38 258 0
-39 41 259 0
39 41 -259 0
-39 -41 -259 0
39 -41 259 0
-43 45 260 0
43 45 -260 0
-43 -45 -260 0
43 -45 260 0
246 -247 261 0
-246 -247 -261 0
246 247 -261 0
-246 247 261 0
248 -249 262 0
-248 -249 -262 0
248 249 -262 0
-248 249 262 0
250 -251 263 0
-250 -251 -263 0
250 251 -263 0
-250 251 263 0
252 -253 264 0
-252 -253 -264 0
252 253 -264 0
-252 253 264 0
254 -255 265 0
-254 -255 -265 0
254 255 -265 0
-254 255 265 0
256 -257 266 0
-256 -257 -266 0
256 257 -266 0
-256 257 266 0
258 -259 267 0
-258 -259 -267 0
258 259 -267 0
-258 259 267 0
260 -261 268 0
-260 -261 -268 0
260 261 -268 0
-260 261 268 0
262 -263 269 0
-262 -263 -269 0
262 263 -269 0
-262 263 269 0
264 -265 270 0
-264 -265 -270 0
264 265 -270 0
-264 265 270 0
266 -267 271 0
-266 -267 -271 0
266 267 -271 0
-266 267 271 0
268 -269 272 0
-268 -269 -272 0
268 269 -272 0
-268 269 272 0
270 -271 273 0
-270 -271 -273 0
270 271 -273 0
-270 271 273 0
272 273 0
-272 -273 0
-12 274 0
-24 274 0
-12 -24 275 0
-23 274 0
-12 -23 275 0
-24 -23 275 0
-12 -24 -23 276 0
-22 277 0
-21 277 0
-22 -21 278 0
-20 277 0
-22 -20 278 0
-21 -20 278 0
-22 -21 -20 279 0
-274 280 0
-275 281 0
-276 282 0
-277 280 0
-278 281 0
-279 282 0
-274 -277 281 0
-274 -278 282 0
-274 -279 283 0
-275 -277 282 0
-275 -278 283 0
-275 -279 284 0
-276 -277 283 0
-276 -278 284 0
-276 -279 285 0
-19 286 0
-18 286 0
-19 -18 287 0
-17 286 0
-19 -17 287 0
-18 -17 287 0
-19 -18 -17 288 0
-16 289 0
-15 289 0
-16 -15 290 0
-14 289 0
-16 -14 290 0
-15 -14 290 0
-16 -15 -14 291 0
-286 292 0
-287 293 0
-288 294 0
-289 292 0
-290 293 0
-291 294 0
-286 -289 293 0
-286 -290 294 0
-286 -291 295 0
-287 -289 294 0
-287 -290 295 0
-287 -291 296 0
-288 -289 295 0
-288 -290 296 0
-288 -291 297 0
-280 298 0
-282 299 0
-284 300 0
-292 298 0
-294 299 0
-296 300 0
-280 -292 299 0
-280 -294 300 0
-280 -296 301 0
-282 -292 300 0
-282 -294 301 0
-282 -296 302 0
-284 -292 301 0
-284 -294 302 0
-284 -296 303 0
-281 304 0
-283 305 0
-285 306 0
-293 304 0
-295 305 0
-297 306 0
-281 -293 305 0
-281 -295 306 0
-281 -297 307 0
-283 -293 306 0
-283 -295 307 0
-283 -297 308 0
-285 -293 307 0
-285 -295 308 0
-285 -297 309 0
-299 310 0
-304 310 0
-299 -304 311 0
-300 312 0
-305 312 0
-300 -305 313 0
-301 314 0
-306 314 0
-301 -306 315 0
-302 316 0
-307 316 0
-302 -307 317 0
-303 318 0
-308 318 0
-303 -308 319 0
-13 320 0
-25 320 0
-13 -25 321 0
-11 320 0
-13 -11 321 0
-25 -11 321 0
-13 -25 -11 322 0
-10 323 0
-9 323 0
-10 -9 324 0
-8 323 0
-10 -8 324 0
-9 -8 324 0
-10 -9 -8 325 0
-320 326 0
-321 327 0
-322 328 0
-323 326 0
-324 327 0
-325 328 0
-320 -323 327 0
-320 -324 328 0
-320 -325 329 0
-321 -323 328 0
-321 -324 329 0
-321 -325 330 0
-322 -323 329 0
-322 -324 330 0
-322 -325 331 0
-7 332 0
-6 332 0
-7 -6 333 0
-5 332 0
-7 -5 333 0
-6 -5 333 0
-7 -6 -5 334 0
-4 335 0
-3 335 0
-4 -3 336 0
-2 335 0
-4 -2 336 0
-3 -2 336 0
-4 -3 -2 337 0
-332 338 0
-333 339 0
-334 340 0
-335 338 0
-336 339 0
-337 340 0
-332 -335 339 0
-332 -336 340 0
-332 -337 341 0
-333 -335 340 0
-333 -336 341 0
-333 -337 342 0
-334 -335 341 0
-334 -336 342 0
-334 -337 343 0
-326 344 0
-328 345 0
-330 346 0
-338 344 0
-340 345 0
-342 346 0
-326 -338 345 0
-326 -340 346 0
-326 -342 347 0
-328 -338 346 0
-328 -340 347 0
-328 -342 348 0
-330 -338 347 0
-330 -340 348 0
-330 -342 349 0
-327 350 0
-329 351 0
-331 352 0
-339 350 0
-341 351 0
-343 352 0
-327 -339 351 0
-327 -341 352 0
-327 -343 353 0
-329 -339 352 0
-329 -341 353 0
-329 -343 354 0
-331 -339 353 0
-331 -341 354 0
-331 -343 355 0
-345 356 0
-350 356 0
-345 -350 357 0
-346 358 0
-351 358 0
-346 -351 359 0
-347 360 0
-352 360 0
-347 -352 361 0
-348 362 0
-353 362 0
-348 -353 363 0
-349 364 0
-354 364 0
-349 -354 365 0
-1 366 0
-37 366 0
-1 -37 367 0
-49 366 0
-1 -49 367 0
-37 -49 367 0
-1 -37 -49 368 0
-48 369 0
-47 369 0
-48 -47 370 0
-46 369 0
-48 -46 370 0
-47 -46 370 0
-48 -47 -46 371 0
-366 372 0
-367 373 0
-368 374 0
-369 372 0
-370 373 0
-371 374 0
-366 -369 373 0
-366 -370 374 0
-366 -371 375 0
-367 -369 374 0
-367 -370 375 0
-367 -371 376 0
-368 -369 375 0
-368 -370 376 0
-368 -371 377 0
-45 378 0
-44 378 0
-45 -44 379 0
-43 378 0
-45 -43 379 0
-44 -43 379 0
-45 -44 -43 380 0
-42 381 0
-41 381 0
-42 -41 382 0
-40 381 0
-42 -40 382 0
-41 -40 382 0
-42 -41 -40 383 0
-378 384 0
-379 385 0
-380 386 0
-381 384 0
-382 385 0
-383 386 0
-378 -381 385 0
-378 -382 386 0
-378 -383 387 0
-379 -381 386 0
-379 -382 387 0
-379 -383 388 0
-380 -381 387 0
-380 -382 388 0
-380 -383 389 0
-372 390 0
-374 391 0
-376 392 0
-384 390 0
-386 391 0
-388 392 0
-372 -384 391 0
-372 -386 392 0
-372 -388 393 0
-374 -384 392 0
-374 -386 393 0
-374 -388 394 0
-376 -384 393 0
-376 -386 394 0
-376 -388 395 0
-373 396 0
-375 397 0
-377 398 0
-385 396 0
-387 397 0
-389 398 0
-373 -385 397 0
-373 -387 398 0
-373 -389 399 0
-375 -385 398 0
-375 -387 399 0
-375 -389 400 0
-377 -385 399 0
-377 -387 400 0
-377 -389 401 0
-391 402 0
-396 402 0
-391 -396 403 0
-392 404 0
-397 404 0
-392 -397 405 0
-393 406 0
-398 406 0
-393 -398 407 0
-394 408 0
-399 408 0
-394 -399 409 0
-395 410 0
-400 410 0
-395 -400 411 0
-39 412 0
-38 412 0
-39 -38 413 0
-50 412 0
-39 -50 413 0
-38 -50 413 0
-39 -38 -50 414 0
-36 415 0
-35 415 0
-36 -35 416 0
-34 415 0
-36 -34 416 0
-35 -34 416 0
-36 -35 -34 417 0
-412 418 0
-413 419 0
-414 420 0
-415 418 0
-416 419 0
-417 420 0
-412 -415 419 0
-412 -416 420 0
-412 -417 421 0
-413 -415 420 0
-413 -416 421 0
-413 -417 422 0
-414 -415 421 0
-414 -416 422 0
-414 -417 423 0
-33 424 0
-32 424 0
-33 -32 425 0
-31 424 0
-33 -31 425 0
-32 -31 425 0
-33 -32 -31 426 0
-30 427 0
-29 427 0
-30 -29 428 0
-28 429 0
-27 429 0
-28 -27 430 0
-26 429 0
-28 -26 430 0
-27 -26 430 0
-28 -27 -26 431 0
-427 432 0
-428 433 0
-429 432 0
-430 433 0
-431 434 0
-427 -429 433 0
-427 -430 434 0
-427 -431 435 0
-428 -429 434 0
-428 -430 435 0
-428 -431 436 0
-424 437 0
-425 438 0
-426 439 0
-432 437 0
-433 438 0
-434 439 0
-435 440 0
-436 441 0
-424 -432 438 0
-424 -433 439 0
-424 -434 440 0
-424 -435 441 0
-424 -436 442 0
-425 -432 439 0
-425 -433 440 0
-425 -434 441 0
-425 -435 442 0
-425 -436 443 0
-426 -432 440 0
-426 -433 441 0
-426 -434 442 0
-426 -435 443 0
-426 -436 444 0
-418 445 0
-420 446 0
-422 447 0
-437 445 0
-439 446 0
-441 447 0
-443 448 0
-418 -437 446 0
-418 -439 447 0
-418 -441 448 0
-418 -443 449 0
-420 -437 447 0
-420 -439 448 0
-420 -441 449 0
-420 -443 450 0
-422 -437 448 0
-422 -439 449 0
-422 -441 450 0
-422 -443 451 0
-419 452 0
-421 453 0
-423 454 0
-438 452 0
-440 453 0
-442 454 0
-444 455 0
-419 -438 453 0
-419 -440 454 0
-419 -442 455 0
-419 -444 456 0
-421 -438 454 0
-421 -440 455 0
-421 -442 456 0
-421 -444 457 0
-423 -438 455 0
-423 -440 456 0
-423 -442 457 0
-423 -444 458 0
-446 459 0
-452 459 0
-446 -452 460 0
-447 461 0
-453 461 0
-447 -453 462 0
-448 463 0
-454 463 0
-448 -454 464 0
-449 465 0
-455 465 0
-449 -455 466 0
-450 467 0
-456 467 0
-450 -456 468 0
-451 469 0
-457 469 0
-451 -457 470 0
-390 471 0
-405 472 0
-409 473 0
-445 471 0
-462 472 0
-466 473 0
-470 474 0
-390 -445 472 0
-390 -462 473 0
-390 -466 474 0
-390 -470 475 0
-405 -445 473 0
-405 -462 474 0
-405 -466 475 0
-409 -445 474 0
-409 -462 475 0
-403 476 0
-407 477 0
-411 478 0
-460 476 0
-464 477 0
-468 478 0
-403 -460 477 0
-403 -464 478 0
-403 -468 479 0
-407 -460 478 0
-407 -464 479 0
-411 -460 479 0
-472 480 0
-476 480 0
-472 -476 481 0
-473 482 0
-477 482 0
-473 -477 483 0
-474 484 0
-478 484 0
-474 -478 485 0
-475 486 0
-479 486 0
-475 -479 487 0
-402 488 0
-406 489 0
-410 490 0
-459 488 0
-463 489 0
-467 490 0
-458 491 0
-402 -459 489 0
-402 -463 490 0
-402 -467 491 0
-402 -458 492 0
-406 -459 490 0
-406 -463 491 0
-406 -467 492 0
-410 -459 491 0
-410 -463 492 0
-404 493 0
-408 494 0
-401 495 0
-461 493 0
-465 494 0
-469 495 0
-404 -461 494 0
-404 -465 495 0
-404 -469 496 0
-408 -461 495 0
-408 -465 496 0
-401 -461 496 0
-489 497 0
-493 497 0
-489 -493 498 0
-490 499 0
-494 499 0
-490 -494 500 0
-491 501 0
-495 501 0
-491 -495 502 0
-492 503 0
-496 503 0
-480 504 0
-488 504 0
-480 -488 505 0
-481 506 0
-497 506 0
-481 -497 507 0
-482 508 0
-498 508 0
-482 -498 509 0
-483 510 0
-499 510 0
-483 -499 511 0
-484 512 0
-500 512 0
-484 -500 513 0
-485 514 0
-501 514 0
-485 -501 515 0
-486 516 0
-502 516 0
-486 -502 517 0
-487 518 0
-503 518 0
-344 519 0
-359 520 0
-363 521 0
-471 519 0
-507 520 0
-511 521 0
-515 522 0
-344 -471 520 0
-344 -507 521 0
-344 -511 522 0
-344 -515 523 0
-359 -471 521 0
-359 -507 522 0
-359 -511 523 0
-363 -471 522 0
-363 -507 523 0
-357 524 0
-361 525 0
-365 526 0
-505 524 0
-509 525 0
-513 526 0
-517 527 0
-357 -505 525 0
-357 -509 526 0
-357 -513 527 0
-361 -505 526 0
-361 -509 527 0
-365 -505 527 0
-520 528 0
-524 528 0
-520 -524 529 0
-521 530 0
-525 530 0
-521 -525 531 0
-522 532 0
-526 532 0
-522 -526 533 0
-523 534 0
-527 534 0
-523 -527 535 0
-356 536 0
-360 537 0
-364 538 0
-504 536 0
-508 537 0
-512 538 0
-516 539 0
-356 -504 537 0
-356 -508 538 0
-356 -512 539 0
-356 -516 540 0
-360 -504 538 0
-360 -508 539 0
-360 -512 540 0
-364 -504 539 0
-364 -508 540 0
-358 541 0
-362 542 0
-355 543 0
-506 541 0
-510 542 0
-514 543 0
-518 544 0
-358 -506 542 0
-358 -510 543 0
-358 -514 544 0
-362 -506 543 0
-362 -510 544 0
-355 -506 544 0
-537 545 0
-541 545 0
-537 -541 546 0
-538 547 0
-542 547 0
-538 -542 548 0
-539 549 0
-543 549 0
-539 -543 550 0
-540 551 0
-544 551 0
-528 552 0
-536 552 0
-528 -536 553 0
-529 554 0
-545 554 0
-529 -545 555 0
-530 556 0
-546 556 0
-530 -546 557 0
-531 558 0
-547 558 0
-531 -547 559 0
-532 560 0
-548 560 0
-532 -548 561 0
-533 562 0
-549 562 0
-533 -549 563 0
-534 564 0
-550 564 0
-534 -550 565 0
-535 566 0
-551 566 0
-298 567 0
-313 568 0
-317 569 0
-519 567 0
-555 568 0
-559 569 0
-563 570 0
-298 -519 568 0
-298 -555 569 0
-298 -559 570 0
-298 -563 571 0
-313 -519 569 0
-313 -555 570 0
-313 -559 571 0
-317 -519 570 0
-317 -555 571 0
-311 572 0
-315 573 0
-319 574 0
-553 572 0
-557 573 0
-561 574 0
-565 575 0
-311 -553 573 0
-311 -557 574 0
-311 -561 575 0
-315 -553 574 0
-315 -557 575 0
-319 -553 575 0
-568 576 0
-572 576 0
-568 -572 577 0
-569 578 0
-573 578 0
-569 -573 579 0
-570 580 0
-574 580 0
-570 -574 581 0
-571 582 0
-575 582 0
-571 -575 583 0
-310 584 0
-314 585 0
-318 586 0
-552 584 0
-556 585 0
-560 586 0
-564 587 0
-310 -552 585 0
-310 -556 586 0
-310 -560 587 0
-310 -564 588 0
-314 -552 586 0
-314 -556 587 0
-314 -560 588 0
-318 -552 587 0
-318 -556 588 0
-312 589 0
-316 590 0
-309 591 0
-554 589 0
-558 590 0
-562 591 0
-566 592 0
-312 -554 590 0
-312 -558 591 0
-312 -562 592 0
-316 -554 591 0
-316 -558 592 0
-309 -554 592 0
-585 593 0
-589 593 0
-585 -589 594 0
-586 595 0
-590 595 0
-586 -590 596 0
-587 597 0
-591 597 0
-587 -591 598 0
-588 599 0
-592 599 0
-576 600 0
-584 600 0
-576 -584 601 0
-577 602 0
-593 602 0
-577 -593 603 0
-578 604 0
-594 604 0
-578 -594 605 0
-579 606 0
-595 606 0
-579 -595 607 0
-580 608 0
-596 608 0
-580 -596 609 0
-581 610 0
-597 610 0
-581 -597 611 0
-582 612 0
-598 612 0
-582 -598 613 0
-583 614 0
-599 614 0
-614 0
